100 152294
32 86 21 94 15 31 90 34 44 48 73 61 92 51 96 45 59 40 30 75 16 47 20 53 56 4 14 26 83 33 55 57 77 99 68 67 76 36 91 27 97 89 87 71 81 62 84 18 70 78 80 3 23 60 13 9 93 64 46 42 100 66 85 25 74 38 72 12 39 58 69 88 95 35 41 49 22 65 54 10 2 79 11 5 8 24 6 1 50 19 17 43 29 52 37 7 63 82 28 98 
